NAME: inst4.atsp
TYPE: ATSP
DIMENSION: 9
EDGE_WEIGHT_TYPE: EXPLICIT
EDGE_WEIGHT_FORMAT: FULL_MATRIX
EDGE_WEIGHT_SECTION:
0 61 57 12 74 75 96 7 78
70 0 17 31 40 66 71 69 29
50 60 0 41 90 13 59 25 54
6 47 22 0 14 89 72 13 84
73 55 92 56 0 1 83 20 36
10 45 80 25 21 0 86 56 40
71 69 29 33 20 70 0 74 38
5 20 75 85 35 22 36 0 93
89 12 7 74 42 77 21 43 0
EOF